<number of tasks>
70

<cycle time>
207

<task times>
1 17
2 66
3 54
4 52
5 6
6 88
7 21
8 128
9 68
10 70
11 85
12 21
13 134
14 135
15 94
16 90
17 50
18 143
19 19
20 54
21 50
22 40
23 73
24 12
25 152
26 42
27 45
28 74
29 26
30 11
31 31
32 50
33 102
34 46
35 35
36 40
37 2
38 1
39 3
40 13
41 16
42 25
43 21
44 43
45 30
46 83
47 89
48 56
49 59
50 43
51 11
52 26
53 44
54 121
55 38
56 68
57 22
58 7
59 16
60 32
61 25
62 27
63 156
64 28
65 15
66 26
67 18
68 72
69 23
70 27

<precedence relations>
1,2
1,41
1,69
1,70
2,3
3,4
3,68
4,6
4,7
5,6
5,24
5,30
6,8
7,8
8,12
9,10
10,11
11,12
12,13
12,14
13,23
14,23
15,16
16,17
16,18
17,19
18,19
19,20
19,22
19,57
20,21
21,23
22,23
23,25
23,31
23,33
24,25
25,26
25,27
25,28
25,29
26,35
27,35
28,35
29,35
30,31
31,32
32,35
33,34
34,35
35,36
35,44
35,48
35,51
35,53
35,56
35,60
35,61
35,62
36,37
37,38
38,39
39,40
40,42
41,42
42,43
43,50
44,45
45,46
46,47
47,50
48,49
49,50
51,52
52,54
53,54
54,55
57,58
58,59
59,60
61,65
62,63
63,64
64,65
64,66
64,67

<setup times forward>
1,9:20
1,10:7
1,11:5
1,15:20
1,16:8
1,17:5
1,18:11
1,19:11
1,20:1
1,21:18
1,22:11
1,30:8
1,41:20
1,57:18
1,58:5
1,59:14
1,69:5
1,70:5
2,9:20
2,10:7
2,11:5
2,15:20
2,16:8
2,17:5
2,18:11
2,19:11
2,20:1
2,21:18
2,22:11
2,30:8
2,41:20
2,57:18
2,58:5
2,59:14
2,69:5
2,70:5
3,9:20
3,10:7
3,11:5
3,15:20
3,16:8
3,17:5
3,18:11
3,19:11
3,20:1
3,21:18
3,22:11
3,30:8
3,41:20
3,57:18
3,58:5
3,59:14
3,68:3
3,69:5
3,70:5
4,6:8
4,7:20
4,9:20
4,10:7
4,11:5
4,15:20
4,16:8
4,17:5
4,18:11
4,19:11
4,20:1
4,21:18
4,22:11
4,30:8
4,41:20
4,57:18
4,58:5
4,59:14
4,68:3
4,69:5
4,70:5
5,6:8
5,7:20
5,9:20
5,10:7
5,11:5
5,15:20
5,16:8
5,17:5
5,18:11
5,19:11
5,20:1
5,21:18
5,22:11
5,30:8
5,41:20
5,57:18
5,58:5
5,59:14
5,68:3
5,69:5
5,70:5
6,7:28
6,8:15
6,9:28
6,10:15
6,11:13
6,15:28
6,17:13
6,18:3
6,19:3
6,20:7
6,21:10
6,22:3
6,24:8
6,41:28
6,57:10
6,58:13
6,59:22
6,68:5
6,69:13
6,70:13
7,5:20
7,6:28
7,8:13
7,10:13
7,11:15
7,16:28
7,17:15
7,18:31
7,19:31
7,20:21
7,21:38
7,22:31
7,24:20
7,30:28
7,57:38
7,58:15
7,59:6
7,68:23
7,69:15
7,70:15
8,9:13
8,11:2
8,12:2
8,15:13
8,16:15
8,17:2
8,18:18
8,19:18
8,20:8
8,21:25
8,22:18
8,24:7
8,30:15
8,41:13
8,57:25
8,58:2
8,59:7
8,68:10
8,69:2
8,70:2
9,1:20
9,2:20
9,3:20
9,4:20
9,5:20
9,6:28
9,8:13
9,10:13
9,16:28
9,17:15
9,18:31
9,19:31
9,20:21
9,21:38
9,22:31
9,24:20
9,30:28
9,57:38
9,58:15
9,59:6
9,68:23
9,69:15
9,70:15
10,1:7
10,2:7
10,3:7
10,4:7
10,5:7
10,6:15
10,7:13
10,11:2
10,15:13
10,16:15
10,17:2
10,18:18
10,19:18
10,20:8
10,21:25
10,22:18
10,24:7
10,30:15
10,41:13
10,57:25
10,58:2
10,59:7
10,68:10
10,69:2
10,70:2
11,1:5
11,2:5
11,3:5
11,4:5
11,5:5
11,6:13
11,7:15
11,8:2
11,15:15
11,16:13
11,18:16
11,19:16
11,20:6
11,21:23
11,22:16
11,24:5
11,30:13
11,41:15
11,57:23
11,59:9
11,68:8
12,13:23
12,14:6
12,15:15
12,16:13
12,18:16
12,19:16
12,20:6
12,21:23
12,22:16
12,24:5
12,30:13
12,41:15
12,57:23
12,59:9
12,68:8
13,14:17
13,15:38
13,16:10
13,17:23
13,18:7
13,19:7
13,20:17
13,22:7
13,23:29
13,24:18
13,30:10
13,41:38
13,58:23
13,59:32
13,68:15
13,69:23
13,70:23
14,13:17
14,15:21
14,16:7
14,17:6
14,18:10
14,19:10
14,21:17
14,22:10
14,23:12
14,24:1
14,30:7
14,41:21
14,57:17
14,58:6
14,59:15
14,68:2
14,69:6
14,70:6
15,1:20
15,2:20
15,3:20
15,4:20
15,5:20
15,6:28
15,8:13
15,10:13
15,11:15
15,12:15
15,13:38
15,14:21
15,16:28
15,24:20
15,30:28
15,68:23
15,69:15
15,70:15
16,1:8
16,2:8
16,3:8
16,4:8
16,5:8
16,7:28
16,8:15
16,9:28
16,10:15
16,11:13
16,12:13
16,13:10
16,14:7
16,17:13
16,18:3
16,24:8
16,41:28
16,68:5
16,69:13
16,70:13
17,1:5
17,2:5
17,3:5
17,4:5
17,5:5
17,6:13
17,7:15
17,8:2
17,9:15
17,10:2
17,13:23
17,14:6
17,18:16
17,19:16
17,24:5
17,30:13
17,41:15
17,68:8
18,1:11
18,2:11
18,3:11
18,4:11
18,5:11
18,6:3
18,7:31
18,8:18
18,9:31
18,10:18
18,11:16
18,12:16
18,13:7
18,14:10
18,17:16
18,24:11
18,30:3
18,41:31
18,68:8
18,69:16
18,70:16
19,1:11
19,2:11
19,3:11
19,4:11
19,5:11
19,6:3
19,7:31
19,8:18
19,9:31
19,10:18
19,11:16
19,12:16
19,13:7
19,14:10
19,20:10
19,24:11
19,30:3
19,41:31
19,57:7
19,68:8
19,69:16
19,70:16
20,1:1
20,2:1
20,3:1
20,4:1
20,5:1
20,6:7
20,7:21
20,8:8
20,9:21
20,10:8
20,11:6
20,12:6
20,13:17
20,21:17
20,22:10
20,24:1
20,30:7
20,41:21
20,57:17
20,58:6
20,59:15
20,68:2
20,69:6
20,70:6
21,1:18
21,2:18
21,3:18
21,4:18
21,5:18
21,6:10
21,7:38
21,8:25
21,9:38
21,10:25
21,11:23
21,12:23
21,14:17
21,22:7
21,23:29
21,24:18
21,30:10
21,41:38
21,58:23
21,59:32
21,68:15
21,69:23
21,70:23
22,1:11
22,2:11
22,3:11
22,4:11
22,5:11
22,6:3
22,7:31
22,8:18
22,9:31
22,10:18
22,11:16
22,12:16
22,13:7
22,14:10
22,20:10
22,21:7
22,23:22
22,24:11
22,30:3
22,41:31
22,57:7
22,58:16
22,59:25
22,68:8
22,69:16
22,70:16
23,24:11
23,25:19
23,30:19
23,41:9
23,57:29
23,58:6
23,59:3
23,68:14
23,69:6
23,70:6
24,6:8
24,7:20
24,8:7
24,9:20
24,10:7
24,11:5
24,12:5
24,13:18
24,14:1
24,15:20
24,16:8
24,17:5
24,18:11
24,19:11
24,20:1
24,21:18
24,22:11
24,23:11
24,25:8
24,30:8
24,31:11
24,32:8
24,33:11
24,34:23
24,41:20
24,57:18
24,58:5
24,59:14
24,68:3
24,69:5
24,70:5
25,26:15
25,27:15
25,28:15
25,29:5
25,31:19
25,33:19
25,34:15
25,41:28
25,57:10
25,58:13
25,59:22
25,68:5
25,69:13
25,70:13
26,29:20
26,30:15
26,31:34
26,32:15
26,33:34
26,35:20
26,41:43
26,57:5
26,58:28
26,59:37
26,68:20
26,69:28
26,70:28
27,29:20
27,30:15
27,31:34
27,32:15
27,33:34
27,35:20
27,41:43
27,57:5
27,58:28
27,59:37
27,68:20
27,69:28
27,70:28
28,29:20
28,30:15
28,31:34
28,32:15
28,33:34
28,35:20
28,41:43
28,57:5
28,58:28
28,59:37
28,68:20
28,69:28
28,70:28
29,26:20
29,27:20
29,28:20
29,30:5
29,31:14
29,32:5
29,33:14
29,34:20
29,41:23
29,57:15
29,58:8
29,59:17
29,69:8
29,70:8
30,1:8
30,2:8
30,3:8
30,4:8
30,7:28
30,8:15
30,9:28
30,10:15
30,11:13
30,12:13
30,13:10
30,14:7
30,15:28
30,17:13
30,18:3
30,19:3
30,20:7
30,21:10
30,22:3
30,23:19
30,24:8
30,26:15
30,27:15
30,28:15
30,29:5
30,31:19
30,33:19
30,34:15
30,41:28
30,57:10
30,58:13
30,59:22
30,68:5
30,69:13
30,70:13
31,24:11
31,25:19
31,26:34
31,27:34
31,28:34
31,29:14
31,32:19
31,34:34
31,41:9
31,57:29
31,58:6
31,59:3
31,68:14
31,69:6
31,70:6
32,24:8
32,26:15
32,27:15
32,28:15
32,29:5
32,33:19
32,34:15
32,35:5
32,41:28
32,57:10
32,58:13
32,59:22
32,68:5
32,69:13
32,70:13
33,24:11
33,25:19
33,26:34
33,27:34
33,28:34
33,29:14
33,30:19
33,32:19
33,34:34
33,41:9
33,57:29
33,58:6
33,59:3
33,68:14
33,69:6
33,70:6
34,24:23
34,25:15
34,29:20
34,30:15
34,31:34
34,32:15
34,35:20
34,41:43
34,57:5
34,58:28
34,59:37
34,68:20
34,69:28
34,70:28
35,36:8
35,41:23
35,44:8
35,48:8
35,51:8
35,53:8
35,57:15
35,58:8
35,59:17
35,60:23
35,61:17
35,62:17
35,69:8
35,70:8
36,37:28
36,41:15
36,45:31
36,46:31
36,47:10
36,49:31
36,52:9
36,54:14
36,55:10
36,56:8
36,57:23
36,59:9
36,60:31
36,61:9
36,62:9
36,63:28
36,64:14
36,65:10
36,66:14
36,67:10
36,68:8
37,41:43
37,44:28
37,45:3
37,46:3
37,47:18
37,48:28
37,49:3
37,51:28
37,52:37
37,53:28
37,54:42
37,55:18
37,56:20
37,57:5
37,58:28
37,59:37
37,60:3
37,61:37
37,62:37
37,64:42
37,65:18
37,66:42
37,67:18
37,68:20
37,69:28
37,70:28
38,41:43
38,44:28
38,45:3
38,46:3
38,47:18
38,48:28
38,49:3
38,51:28
38,52:37
38,53:28
38,54:42
38,55:18
38,56:20
38,57:5
38,58:28
38,59:37
38,60:3
38,61:37
38,62:37
38,64:42
38,65:18
38,66:42
38,67:18
38,68:20
38,69:28
38,70:28
39,41:43
39,44:28
39,45:3
39,46:3
39,47:18
39,48:28
39,49:3
39,51:28
39,52:37
39,53:28
39,54:42
39,55:18
39,56:20
39,57:5
39,58:28
39,59:37
39,60:3
39,61:37
39,62:37
39,64:42
39,65:18
39,66:42
39,67:18
39,68:20
39,69:28
39,70:28
40,41:43
40,44:28
40,45:3
40,46:3
40,47:18
40,48:28
40,49:3
40,51:28
40,52:37
40,53:28
40,54:42
40,55:18
40,56:20
40,57:5
40,58:28
40,59:37
40,60:3
40,61:37
40,62:37
40,64:42
40,65:18
40,66:42
40,67:18
40,68:20
40,69:28
40,70:28
41,2:20
41,3:20
41,4:20
41,5:20
41,6:28
41,8:13
41,10:13
41,11:15
41,12:15
41,13:38
41,14:21
41,16:28
41,17:15
41,18:31
41,19:31
41,20:21
41,21:38
41,22:31
41,23:9
41,24:20
41,25:28
41,26:43
41,27:43
41,28:43
41,29:23
41,30:28
41,31:9
41,32:28
41,33:9
41,34:43
41,35:23
41,36:15
41,37:43
41,38:43
41,39:43
41,40:43
41,42:43
41,44:15
41,45:46
41,46:46
41,47:25
41,48:15
41,49:46
41,51:15
41,52:6
41,53:15
41,54:1
41,55:25
41,56:23
41,57:38
41,58:15
41,59:6
41,60:46
41,61:6
41,62:6
41,63:43
41,64:1
41,65:25
41,66:1
41,67:25
41,68:23
41,69:15
41,70:15
42,43:42
42,44:28
42,45:3
42,46:3
42,47:18
42,48:28
42,49:3
42,51:28
42,52:37
42,53:28
42,54:42
42,55:18
42,56:20
42,57:5
42,58:28
42,59:37
42,60:3
42,61:37
42,62:37
42,64:42
42,65:18
42,66:42
42,67:18
42,68:20
42,69:28
42,70:28
43,44:14
43,45:45
43,46:45
43,47:24
43,48:14
43,49:45
43,50:24
43,51:14
43,52:5
43,53:14
43,55:24
43,56:22
43,57:37
43,58:14
43,59:5
43,60:45
43,61:5
43,62:5
43,63:42
43,65:24
43,67:24
43,68:22
43,69:14
43,70:14
44,37:28
44,38:28
44,39:28
44,40:28
44,41:15
44,42:28
44,43:14
44,45:31
44,49:31
44,52:9
44,54:14
44,55:10
44,56:8
44,57:23
44,59:9
44,60:31
44,61:9
44,62:9
44,63:28
44,64:14
44,65:10
44,66:14
44,67:10
44,68:8
45,36:31
45,37:3
45,38:3
45,39:3
45,40:3
45,41:46
45,42:3
45,43:45
45,48:31
45,51:31
45,52:40
45,53:31
45,54:45
45,55:21
45,56:23
45,57:8
45,58:31
45,59:40
45,61:40
45,62:40
45,63:3
45,64:45
45,65:21
45,66:45
45,67:21
45,68:23
45,69:31
45,70:31
46,36:31
46,37:3
46,38:3
46,39:3
46,40:3
46,41:46
46,42:3
46,43:45
46,47:21
46,48:31
46,51:31
46,52:40
46,53:31
46,54:45
46,55:21
46,56:23
46,57:8
46,58:31
46,59:40
46,61:40
46,62:40
46,63:3
46,64:45
46,65:21
46,66:45
46,67:21
46,68:23
46,69:31
46,70:31
47,36:10
47,37:18
47,38:18
47,39:18
47,40:18
47,41:25
47,42:18
47,43:24
47,48:10
47,49:21
47,51:10
47,52:19
47,53:10
47,54:24
47,56:2
47,57:13
47,58:10
47,59:19
47,60:21
47,61:19
47,62:19
47,63:18
47,64:24
47,66:24
47,68:2
47,69:10
47,70:10
48,37:28
48,38:28
48,39:28
48,40:28
48,41:15
48,42:28
48,43:14
48,45:31
48,46:31
48,47:10
48,49:31
48,52:9
48,54:14
48,55:10
48,56:8
48,57:23
48,59:9
48,60:31
48,61:9
48,62:9
48,63:28
48,64:14
48,65:10
48,66:14
48,67:10
48,68:8
49,36:31
49,37:3
49,38:3
49,39:3
49,40:3
49,41:46
49,42:3
49,43:45
49,44:31
49,47:21
49,50:21
49,51:31
49,52:40
49,53:31
49,54:45
49,55:21
49,56:23
49,57:8
49,58:31
49,59:40
49,61:40
49,62:40
49,63:3
49,64:45
49,65:21
49,66:45
49,67:21
49,68:23
49,69:31
49,70:31
50,51:10
50,52:19
50,53:10
50,54:24
50,56:2
50,57:13
50,58:10
50,59:19
50,60:21
50,61:19
50,62:19
50,63:18
50,64:24
50,66:24
50,68:2
50,69:10
50,70:10
51,37:28
51,38:28
51,39:28
51,40:28
51,41:15
51,42:28
51,43:14
51,45:31
51,46:31
51,47:10
51,49:31
51,50:10
51,52:9
51,56:8
51,57:23
51,59:9
51,60:31
51,61:9
51,62:9
51,63:28
51,64:14
51,65:10
51,66:14
51,67:10
51,68:8
52,36:9
52,37:37
52,38:37
52,39:37
52,40:37
52,41:6
52,42:37
52,43:5
52,44:9
52,45:40
52,46:40
52,47:19
52,48:9
52,49:40
52,50:19
52,53:9
52,54:5
52,56:17
52,57:32
52,58:9
52,60:40
52,63:37
52,64:5
52,65:19
52,66:5
52,67:19
52,68:17
52,69:9
52,70:9
53,37:28
53,38:28
53,39:28
53,40:28
53,41:15
53,42:28
53,43:14
53,45:31
53,46:31
53,47:10
53,49:31
53,50:10
53,52:9
53,54:14
53,56:8
53,57:23
53,59:9
53,60:31
53,61:9
53,62:9
53,63:28
53,64:14
53,65:10
53,66:14
53,67:10
53,68:8
54,36:14
54,37:42
54,38:42
54,39:42
54,40:42
54,41:1
54,42:42
54,44:14
54,45:45
54,46:45
54,47:24
54,48:14
54,49:45
54,50:24
54,55:24
54,56:22
54,57:37
54,58:14
54,59:5
54,60:45
54,61:5
54,62:5
54,63:42
54,65:24
54,67:24
54,68:22
54,69:14
54,70:14
55,36:10
55,37:18
55,38:18
55,39:18
55,40:18
55,41:25
55,42:18
55,43:24
55,44:10
55,45:21
55,46:21
55,48:10
55,49:21
55,56:2
55,57:13
55,58:10
55,59:19
55,60:21
55,61:19
55,62:19
55,63:18
55,64:24
55,66:24
55,68:2
55,69:10
55,70:10
56,36:8
56,37:20
56,38:20
56,39:20
56,40:20
56,41:23
56,42:20
56,43:22
56,44:8
56,45:23
56,46:23
56,47:2
56,48:8
56,49:23
56,50:2
56,51:8
56,52:17
56,53:8
56,54:22
56,55:2
56,57:15
56,58:8
56,59:17
56,60:23
56,61:17
56,62:17
56,63:20
56,64:22
56,65:2
56,66:22
56,67:2
56,69:8
56,70:8
57,1:18
57,2:18
57,3:18
57,4:18
57,5:18
57,6:10
57,7:38
57,8:25
57,9:38
57,10:25
57,11:23
57,12:23
57,14:17
57,20:17
57,22:7
57,23:29
57,24:18
57,25:10
57,26:5
57,27:5
57,28:5
57,29:15
57,30:10
57,31:29
57,32:10
57,33:29
57,34:5
57,35:15
57,36:23
57,37:5
57,38:5
57,39:5
57,40:5
57,41:38
57,42:5
57,43:37
57,44:23
57,45:8
57,46:8
57,47:13
57,48:23
57,49:8
57,50:13
57,51:23
57,52:32
57,53:23
57,54:37
57,55:13
57,56:15
57,58:23
57,61:32
57,62:32
57,63:5
57,64:37
57,65:13
57,66:37
57,67:13
57,68:15
57,69:23
57,70:23
58,1:5
58,2:5
58,3:5
58,4:5
58,5:5
58,6:13
58,7:15
58,8:2
58,9:15
58,10:2
58,13:23
58,14:6
58,20:6
58,21:23
58,22:16
58,23:6
58,24:5
58,25:13
58,26:28
58,27:28
58,28:28
58,29:8
58,30:13
58,31:6
58,32:13
58,33:6
58,34:28
58,35:8
58,37:28
58,38:28
58,39:28
58,40:28
58,41:15
58,42:28
58,43:14
58,45:31
58,46:31
58,47:10
58,49:31
58,50:10
58,52:9
58,54:14
58,55:10
58,56:8
58,59:9
58,61:9
58,62:9
58,63:28
58,64:14
58,65:10
58,66:14
58,67:10
58,68:8
59,1:14
59,2:14
59,3:14
59,4:14
59,5:14
59,6:22
59,7:6
59,8:7
59,9:6
59,10:7
59,11:9
59,12:9
59,13:32
59,14:15
59,20:15
59,21:32
59,22:25
59,23:3
59,24:14
59,25:22
59,26:37
59,27:37
59,28:37
59,29:17
59,30:22
59,31:3
59,32:22
59,33:3
59,34:37
59,35:17
59,36:9
59,37:37
59,38:37
59,39:37
59,40:37
59,41:6
59,42:37
59,43:5
59,44:9
59,45:40
59,46:40
59,47:19
59,48:9
59,49:40
59,50:19
59,51:9
59,53:9
59,54:5
59,55:19
59,56:17
59,60:40
59,63:37
59,64:5
59,65:19
59,66:5
59,67:19
59,68:17
59,69:9
59,70:9
60,36:31
60,37:3
60,38:3
60,39:3
60,40:3
60,41:46
60,42:3
60,43:45
60,44:31
60,47:21
60,48:31
60,50:21
60,51:31
60,52:40
60,53:31
60,54:45
60,55:21
60,56:23
60,61:40
60,62:40
60,63:3
60,64:45
60,65:21
60,66:45
60,67:21
60,68:23
60,69:31
60,70:31
61,36:9
61,37:37
61,38:37
61,39:37
61,40:37
61,41:6
61,42:37
61,43:5
61,44:9
61,45:40
61,46:40
61,47:19
61,48:9
61,49:40
61,50:19
61,51:9
61,53:9
61,54:5
61,55:19
61,56:17
61,57:32
61,58:9
61,60:40
61,63:37
61,64:5
61,65:19
61,66:5
61,67:19
61,68:17
61,69:9
61,70:9
62,36:9
62,37:37
62,38:37
62,39:37
62,40:37
62,41:6
62,42:37
62,43:5
62,44:9
62,45:40
62,46:40
62,47:19
62,48:9
62,49:40
62,50:19
62,51:9
62,53:9
62,54:5
62,55:19
62,56:17
62,57:32
62,58:9
62,60:40
62,63:37
62,68:17
62,69:9
62,70:9
63,36:28
63,41:43
63,43:42
63,44:28
63,45:3
63,46:3
63,47:18
63,48:28
63,49:3
63,50:18
63,51:28
63,52:37
63,53:28
63,54:42
63,55:18
63,56:20
63,57:5
63,58:28
63,59:37
63,60:3
63,61:37
63,64:42
63,68:20
63,69:28
63,70:28
64,36:14
64,37:42
64,38:42
64,39:42
64,40:42
64,41:1
64,42:42
64,44:14
64,45:45
64,46:45
64,47:24
64,48:14
64,49:45
64,50:24
64,51:14
64,52:5
64,53:14
64,55:24
64,56:22
64,57:37
64,58:14
64,59:5
64,60:45
64,61:5
64,65:24
64,67:24
64,68:22
64,69:14
64,70:14
65,36:10
65,37:18
65,38:18
65,39:18
65,40:18
65,41:25
65,42:18
65,43:24
65,44:10
65,45:21
65,46:21
65,48:10
65,49:21
65,51:10
65,52:19
65,53:10
65,54:24
65,56:2
65,57:13
65,58:10
65,59:19
65,60:21
65,66:24
65,68:2
65,69:10
65,70:10
66,36:14
66,37:42
66,38:42
66,39:42
66,40:42
66,41:1
66,42:42
66,44:14
66,45:45
66,46:45
66,47:24
66,48:14
66,49:45
66,50:24
66,51:14
66,52:5
66,53:14
66,55:24
66,56:22
66,57:37
66,58:14
66,59:5
66,60:45
66,61:5
66,65:24
66,67:24
66,68:22
66,69:14
66,70:14
67,36:10
67,37:18
67,38:18
67,39:18
67,40:18
67,41:25
67,42:18
67,43:24
67,44:10
67,45:21
67,46:21
67,48:10
67,49:21
67,51:10
67,52:19
67,53:10
67,54:24
67,56:2
67,57:13
67,58:10
67,59:19
67,60:21
67,61:19
67,66:24
67,68:2
67,69:10
67,70:10
68,4:3
68,5:3
68,6:5
68,7:23
68,8:10
68,9:23
68,10:10
68,11:8
68,12:8
68,13:15
68,14:2
68,15:23
68,16:5
68,17:8
68,18:8
68,19:8
68,20:2
68,21:15
68,22:8
68,23:14
68,24:3
68,25:5
68,26:20
68,27:20
68,28:20
68,30:5
68,31:14
68,32:5
68,33:14
68,34:20
68,36:8
68,37:20
68,38:20
68,39:20
68,40:20
68,41:23
68,42:20
68,43:22
68,44:8
68,45:23
68,46:23
68,47:2
68,48:8
68,49:23
68,50:2
68,51:8
68,52:17
68,53:8
68,54:22
68,55:2
68,57:15
68,58:8
68,59:17
68,60:23
68,61:17
68,62:17
68,63:20
68,64:22
68,65:2
68,66:22
68,67:2
68,69:8
68,70:8
69,2:5
69,3:5
69,4:5
69,5:5
69,6:13
69,7:15
69,8:2
69,9:15
69,10:2
69,13:23
69,14:6
69,15:15
69,16:13
69,18:16
69,19:16
69,20:6
69,21:23
69,22:16
69,23:6
69,24:5
69,25:13
69,26:28
69,27:28
69,28:28
69,29:8
69,30:13
69,31:6
69,32:13
69,33:6
69,34:28
69,35:8
69,37:28
69,38:28
69,39:28
69,40:28
69,41:15
69,42:28
69,43:14
69,45:31
69,46:31
69,47:10
69,49:31
69,50:10
69,52:9
69,54:14
69,55:10
69,56:8
69,57:23
69,59:9
69,60:31
69,61:9
69,62:9
69,63:28
69,64:14
69,65:10
69,66:14
69,67:10
69,68:8
70,2:5
70,3:5
70,4:5
70,5:5
70,6:13
70,7:15
70,8:2
70,9:15
70,10:2
70,13:23
70,14:6
70,15:15
70,16:13
70,18:16
70,19:16
70,20:6
70,21:23
70,22:16
70,23:6
70,24:5
70,25:13
70,26:28
70,27:28
70,28:28
70,29:8
70,30:13
70,31:6
70,32:13
70,33:6
70,34:28
70,35:8
70,37:28
70,38:28
70,39:28
70,40:28
70,41:15
70,42:28
70,43:14
70,45:31
70,46:31
70,47:10
70,49:31
70,50:10
70,52:9
70,54:14
70,55:10
70,56:8
70,57:23
70,59:9
70,60:31
70,61:9
70,62:9
70,63:28
70,64:14
70,65:10
70,66:14
70,67:10
70,68:8

<setup times backward>
1,16:8
1,18:11
1,19:11
1,20:1
1,21:18
1,22:11
1,30:8
1,57:18
2,16:8
2,18:11
2,19:11
2,20:1
2,21:18
2,22:11
2,30:8
2,57:18
3,16:8
3,18:11
3,19:11
3,20:1
3,21:18
3,22:11
3,30:8
3,57:18
4,16:8
4,18:11
4,19:11
4,20:1
4,21:18
4,22:11
4,30:8
4,57:18
4,68:3
5,16:8
5,18:11
5,19:11
5,20:1
5,21:18
5,22:11
5,57:18
5,68:3
6,18:3
6,19:3
6,21:10
6,22:3
6,57:10
7,1:20
7,2:20
7,3:20
7,4:20
7,5:20
7,6:28
7,10:13
7,11:15
7,16:28
7,17:15
7,18:31
7,19:31
7,20:21
7,21:38
7,22:31
7,24:20
7,30:28
7,57:38
7,58:15
7,59:6
7,68:23
7,69:15
7,70:15
8,1:7
8,2:7
8,3:7
8,4:7
8,5:7
8,6:15
8,11:2
8,16:15
8,17:2
8,18:18
8,19:18
8,20:8
8,21:25
8,22:18
8,24:7
8,30:15
8,57:25
8,58:2
8,68:10
8,69:2
8,70:2
9,1:20
9,2:20
9,3:20
9,4:20
9,5:20
9,6:28
9,8:13
9,16:28
9,17:15
9,18:31
9,19:31
9,20:21
9,21:38
9,22:31
9,24:20
9,30:28
9,57:38
9,58:15
9,59:6
9,68:23
9,69:15
9,70:15
10,1:7
10,2:7
10,3:7
10,4:7
10,5:7
10,6:15
10,16:15
10,17:2
10,18:18
10,19:18
10,20:8
10,21:25
10,22:18
10,24:7
10,30:15
10,57:25
10,58:2
10,68:10
10,69:2
10,70:2
11,1:5
11,2:5
11,3:5
11,4:5
11,5:5
11,6:13
11,16:13
11,18:16
11,19:16
11,20:6
11,21:23
11,22:16
11,24:5
11,30:13
11,57:23
11,68:8
12,1:5
12,2:5
12,3:5
12,4:5
12,5:5
12,6:13
12,16:13
12,18:16
12,19:16
12,20:6
12,21:23
12,22:16
12,24:5
12,30:13
12,57:23
12,68:8
14,6:7
14,13:17
14,16:7
14,18:10
14,19:10
14,21:17
14,22:10
14,30:7
14,57:17
14,68:2
15,1:20
15,2:20
15,3:20
15,4:20
15,5:20
15,6:28
15,8:13
15,10:13
15,11:15
15,12:15
15,13:38
15,14:21
15,24:20
15,30:28
15,68:23
15,69:15
15,70:15
16,13:10
17,1:5
17,2:5
17,3:5
17,4:5
17,5:5
17,6:13
17,13:23
17,14:6
17,16:13
17,18:16
17,24:5
17,30:13
17,68:8
18,13:7
19,13:7
20,6:7
20,13:17
20,16:7
20,18:10
20,19:10
20,22:10
20,30:7
20,57:17
20,68:2
22,13:7
22,21:7
22,57:7
23,1:11
23,2:11
23,3:11
23,4:11
23,5:11
23,6:19
23,8:4
23,10:4
23,11:6
23,12:6
23,13:29
23,14:12
23,16:19
23,17:6
23,18:22
23,19:22
23,20:12
23,21:29
23,22:22
23,24:11
23,30:19
23,57:29
23,58:6
23,68:14
23,69:6
23,70:6
24,6:8
24,13:18
24,14:1
24,16:8
24,18:11
24,19:11
24,20:1
24,21:18
24,22:11
24,30:8
24,32:8
24,34:23
24,57:18
24,68:3
25,13:10
25,18:3
25,19:3
25,21:10
25,22:3
25,34:15
25,57:10
29,6:5
29,13:15
29,16:5
29,18:8
29,19:8
29,21:15
29,22:8
29,25:5
29,26:20
29,27:20
29,28:20
29,30:5
29,32:5
29,34:20
29,57:15
30,13:10
30,18:3
30,19:3
30,21:10
30,22:3
30,26:15
30,27:15
30,28:15
30,34:15
30,57:10
31,1:11
31,2:11
31,3:11
31,4:11
31,5:11
31,6:19
31,8:4
31,10:4
31,11:6
31,12:6
31,13:29
31,14:12
31,16:19
31,17:6
31,18:22
31,19:22
31,20:12
31,21:29
31,22:22
31,24:11
31,25:19
31,26:34
31,27:34
31,28:34
31,29:14
31,30:19
31,34:34
31,57:29
31,58:6
31,68:14
31,69:6
31,70:6
32,13:10
32,18:3
32,19:3
32,21:10
32,22:3
32,26:15
32,27:15
32,28:15
32,34:15
32,57:10
33,1:11
33,2:11
33,3:11
33,4:11
33,5:11
33,6:19
33,8:4
33,10:4
33,11:6
33,12:6
33,13:29
33,14:12
33,16:19
33,17:6
33,18:22
33,19:22
33,20:12
33,21:29
33,22:22
33,24:11
33,25:19
33,26:34
33,27:34
33,28:34
33,29:14
33,30:19
33,32:19
33,57:29
33,58:6
33,68:14
33,69:6
33,70:6
35,6:5
35,13:15
35,16:5
35,18:8
35,19:8
35,21:15
35,22:8
35,25:5
35,26:20
35,27:20
35,28:20
35,30:5
35,32:5
35,34:20
35,57:15
36,1:5
36,2:5
36,3:5
36,4:5
36,5:5
36,6:13
36,13:23
36,14:6
36,16:13
36,18:16
36,19:16
36,20:6
36,21:23
36,22:16
36,24:5
36,25:13
36,26:28
36,27:28
36,28:28
36,29:8
36,30:13
36,32:13
36,34:28
36,35:8
36,45:31
36,46:31
36,47:10
36,49:31
36,55:10
36,56:8
36,57:23
36,60:31
36,63:28
36,65:10
36,67:10
36,68:8
37,45:3
37,46:3
37,49:3
37,60:3
38,45:3
38,46:3
38,49:3
38,60:3
39,45:3
39,46:3
39,49:3
39,60:3
40,45:3
40,46:3
40,49:3
40,60:3
41,1:20
41,2:20
41,3:20
41,4:20
41,5:20
41,6:28
41,8:13
41,10:13
41,11:15
41,12:15
41,13:38
41,14:21
41,16:28
41,17:15
41,18:31
41,19:31
41,20:21
41,21:38
41,22:31
41,23:9
41,24:20
41,25:28
41,26:43
41,27:43
41,28:43
41,29:23
41,30:28
41,31:9
41,32:28
41,33:9
41,34:43
41,35:23
41,36:15
41,37:43
41,38:43
41,39:43
41,40:43
41,44:15
41,45:46
41,46:46
41,47:25
41,48:15
41,49:46
41,51:15
41,52:6
41,53:15
41,54:1
41,55:25
41,56:23
41,57:38
41,58:15
41,59:6
41,60:46
41,61:6
41,62:6
41,63:43
41,64:1
41,65:25
41,66:1
41,67:25
41,68:23
41,69:15
41,70:15
42,45:3
42,46:3
42,49:3
42,60:3
43,1:19
43,2:19
43,3:19
43,4:19
43,5:19
43,6:27
43,8:12
43,10:12
43,11:14
43,12:14
43,13:37
43,14:20
43,16:27
43,17:14
43,18:30
43,19:30
43,20:20
43,21:37
43,22:30
43,23:8
43,24:19
43,25:27
43,26:42
43,27:42
43,28:42
43,29:22
43,30:27
43,31:8
43,32:27
43,33:8
43,34:42
43,35:22
43,36:14
43,37:42
43,38:42
43,39:42
43,40:42
43,42:42
43,44:14
43,45:45
43,46:45
43,47:24
43,48:14
43,49:45
43,51:14
43,52:5
43,53:14
43,55:24
43,56:22
43,57:37
43,58:14
43,59:5
43,60:45
43,61:5
43,62:5
43,63:42
43,65:24
43,67:24
43,68:22
43,69:14
43,70:14
44,1:5
44,2:5
44,3:5
44,4:5
44,5:5
44,6:13
44,13:23
44,14:6
44,16:13
44,18:16
44,19:16
44,20:6
44,21:23
44,22:16
44,24:5
44,25:13
44,26:28
44,27:28
44,28:28
44,29:8
44,30:13
44,32:13
44,34:28
44,35:8
44,37:28
44,38:28
44,39:28
44,40:28
44,42:28
44,49:31
44,55:10
44,56:8
44,57:23
44,60:31
44,63:28
44,65:10
44,67:10
44,68:8
47,6:3
47,13:13
47,16:3
47,18:6
47,19:6
47,21:13
47,22:6
47,25:3
47,26:18
47,27:18
47,28:18
47,30:3
47,32:3
47,34:18
47,37:18
47,38:18
47,39:18
47,40:18
47,42:18
47,45:21
47,46:21
47,49:21
47,57:13
47,60:21
47,63:18
48,1:5
48,2:5
48,3:5
48,4:5
48,5:5
48,6:13
48,13:23
48,14:6
48,16:13
48,18:16
48,19:16
48,20:6
48,21:23
48,22:16
48,24:5
48,25:13
48,26:28
48,27:28
48,28:28
48,29:8
48,30:13
48,32:13
48,34:28
48,35:8
48,37:28
48,38:28
48,39:28
48,40:28
48,42:28
48,45:31
48,46:31
48,47:10
48,55:10
48,56:8
48,57:23
48,60:31
48,63:28
48,65:10
48,67:10
48,68:8
50,6:3
50,13:13
50,16:3
50,18:6
50,19:6
50,21:13
50,22:6
50,25:3
50,26:18
50,27:18
50,28:18
50,30:3
50,32:3
50,34:18
50,37:18
50,38:18
50,39:18
50,40:18
50,42:18
50,45:21
50,46:21
50,49:21
50,57:13
50,60:21
50,63:18
51,1:5
51,2:5
51,3:5
51,4:5
51,5:5
51,6:13
51,13:23
51,14:6
51,16:13
51,18:16
51,19:16
51,20:6
51,21:23
51,22:16
51,24:5
51,25:13
51,26:28
51,27:28
51,28:28
51,29:8
51,30:13
51,32:13
51,34:28
51,35:8
51,37:28
51,38:28
51,39:28
51,40:28
51,42:28
51,45:31
51,46:31
51,47:10
51,49:31
51,50:10
51,56:8
51,57:23
51,60:31
51,63:28
51,65:10
51,67:10
51,68:8
52,1:14
52,2:14
52,3:14
52,4:14
52,5:14
52,6:22
52,8:7
52,10:7
52,11:9
52,12:9
52,13:32
52,14:15
52,16:22
52,17:9
52,18:25
52,19:25
52,20:15
52,21:32
52,22:25
52,23:3
52,24:14
52,25:22
52,26:37
52,27:37
52,28:37
52,29:17
52,30:22
52,31:3
52,32:22
52,33:3
52,34:37
52,35:17
52,36:9
52,37:37
52,38:37
52,39:37
52,40:37
52,42:37
52,44:9
52,45:40
52,46:40
52,47:19
52,48:9
52,49:40
52,50:19
52,51:9
52,53:9
52,56:17
52,57:32
52,58:9
52,60:40
52,63:37
52,65:19
52,67:19
52,68:17
52,69:9
52,70:9
53,1:5
53,2:5
53,3:5
53,4:5
53,5:5
53,6:13
53,13:23
53,14:6
53,16:13
53,18:16
53,19:16
53,20:6
53,21:23
53,22:16
53,24:5
53,25:13
53,26:28
53,27:28
53,28:28
53,29:8
53,30:13
53,32:13
53,34:28
53,35:8
53,37:28
53,38:28
53,39:28
53,40:28
53,42:28
53,45:31
53,46:31
53,47:10
53,49:31
53,50:10
53,56:8
53,57:23
53,60:31
53,63:28
53,65:10
53,67:10
53,68:8
54,1:19
54,2:19
54,3:19
54,4:19
54,5:19
54,6:27
54,8:12
54,10:12
54,11:14
54,12:14
54,13:37
54,14:20
54,16:27
54,17:14
54,18:30
54,19:30
54,20:20
54,21:37
54,22:30
54,23:8
54,24:19
54,25:27
54,26:42
54,27:42
54,28:42
54,29:22
54,30:27
54,31:8
54,32:27
54,33:8
54,34:42
54,35:22
54,36:14
54,37:42
54,38:42
54,39:42
54,40:42
54,42:42
54,44:14
54,45:45
54,46:45
54,47:24
54,48:14
54,49:45
54,50:24
54,51:14
54,52:5
54,53:14
54,56:22
54,57:37
54,58:14
54,59:5
54,60:45
54,61:5
54,62:5
54,63:42
54,65:24
54,67:24
54,68:22
54,69:14
54,70:14
55,6:3
55,13:13
55,16:3
55,18:6
55,19:6
55,21:13
55,22:6
55,25:3
55,26:18
55,27:18
55,28:18
55,30:3
55,32:3
55,34:18
55,37:18
55,38:18
55,39:18
55,40:18
55,42:18
55,45:21
55,46:21
55,49:21
55,57:13
55,60:21
55,63:18
56,6:5
56,13:15
56,16:5
56,18:8
56,19:8
56,21:15
56,22:8
56,25:5
56,26:20
56,27:20
56,28:20
56,30:5
56,32:5
56,34:20
56,37:20
56,38:20
56,39:20
56,40:20
56,42:20
56,45:23
56,46:23
56,47:2
56,49:23
56,50:2
56,55:2
56,57:15
56,60:23
56,63:20
56,65:2
56,67:2
57,26:5
57,27:5
57,28:5
57,34:5
57,37:5
57,38:5
57,39:5
57,40:5
57,42:5
57,45:8
57,46:8
57,49:8
57,63:5
58,1:5
58,2:5
58,3:5
58,4:5
58,5:5
58,6:13
58,13:23
58,14:6
58,16:13
58,18:16
58,19:16
58,20:6
58,21:23
58,22:16
58,24:5
58,25:13
58,26:28
58,27:28
58,28:28
58,29:8
58,30:13
58,32:13
58,34:28
58,35:8
58,37:28
58,38:28
58,39:28
58,40:28
58,42:28
58,45:31
58,46:31
58,47:10
58,49:31
58,50:10
58,55:10
58,56:8
58,57:23
58,63:28
58,65:10
58,67:10
58,68:8
59,1:14
59,2:14
59,3:14
59,4:14
59,5:14
59,6:22
59,8:7
59,10:7
59,11:9
59,12:9
59,13:32
59,14:15
59,16:22
59,17:9
59,18:25
59,19:25
59,20:15
59,21:32
59,22:25
59,23:3
59,24:14
59,25:22
59,26:37
59,27:37
59,28:37
59,29:17
59,30:22
59,31:3
59,32:22
59,33:3
59,34:37
59,35:17
59,36:9
59,37:37
59,38:37
59,39:37
59,40:37
59,42:37
59,44:9
59,45:40
59,46:40
59,47:19
59,48:9
59,49:40
59,50:19
59,51:9
59,53:9
59,55:19
59,56:17
59,57:32
59,58:9
59,63:37
59,65:19
59,67:19
59,68:17
59,69:9
59,70:9
61,1:14
61,2:14
61,3:14
61,4:14
61,5:14
61,6:22
61,8:7
61,10:7
61,11:9
61,12:9
61,13:32
61,14:15
61,16:22
61,17:9
61,18:25
61,19:25
61,20:15
61,21:32
61,22:25
61,23:3
61,24:14
61,25:22
61,26:37
61,27:37
61,28:37
61,29:17
61,30:22
61,31:3
61,32:22
61,33:3
61,34:37
61,35:17
61,36:9
61,37:37
61,38:37
61,39:37
61,40:37
61,42:37
61,44:9
61,45:40
61,46:40
61,47:19
61,48:9
61,49:40
61,50:19
61,51:9
61,53:9
61,55:19
61,56:17
61,57:32
61,58:9
61,60:40
61,63:37
61,67:19
61,68:17
61,69:9
61,70:9
62,1:14
62,2:14
62,3:14
62,4:14
62,5:14
62,6:22
62,8:7
62,10:7
62,11:9
62,12:9
62,13:32
62,14:15
62,16:22
62,17:9
62,18:25
62,19:25
62,20:15
62,21:32
62,22:25
62,23:3
62,24:14
62,25:22
62,26:37
62,27:37
62,28:37
62,29:17
62,30:22
62,31:3
62,32:22
62,33:3
62,34:37
62,35:17
62,36:9
62,37:37
62,38:37
62,39:37
62,40:37
62,42:37
62,44:9
62,45:40
62,46:40
62,47:19
62,48:9
62,49:40
62,50:19
62,51:9
62,53:9
62,55:19
62,56:17
62,57:32
62,58:9
62,60:40
62,68:17
62,69:9
62,70:9
63,45:3
63,46:3
63,49:3
63,60:3
64,1:19
64,2:19
64,3:19
64,4:19
64,5:19
64,6:27
64,8:12
64,10:12
64,11:14
64,12:14
64,13:37
64,14:20
64,16:27
64,17:14
64,18:30
64,19:30
64,20:20
64,21:37
64,22:30
64,23:8
64,24:19
64,25:27
64,26:42
64,27:42
64,28:42
64,29:22
64,30:27
64,31:8
64,32:27
64,33:8
64,34:42
64,35:22
64,36:14
64,37:42
64,38:42
64,39:42
64,40:42
64,42:42
64,44:14
64,45:45
64,46:45
64,47:24
64,48:14
64,49:45
64,50:24
64,51:14
64,52:5
64,53:14
64,55:24
64,56:22
64,57:37
64,58:14
64,59:5
64,60:45
64,61:5
64,62:5
64,63:42
64,68:22
64,69:14
64,70:14
65,6:3
65,13:13
65,16:3
65,18:6
65,19:6
65,21:13
65,22:6
65,25:3
65,26:18
65,27:18
65,28:18
65,30:3
65,32:3
65,34:18
65,37:18
65,38:18
65,39:18
65,40:18
65,42:18
65,45:21
65,46:21
65,49:21
65,57:13
65,60:21
65,63:18
66,1:19
66,2:19
66,3:19
66,4:19
66,5:19
66,6:27
66,8:12
66,10:12
66,11:14
66,12:14
66,13:37
66,14:20
66,16:27
66,17:14
66,18:30
66,19:30
66,20:20
66,21:37
66,22:30
66,23:8
66,24:19
66,25:27
66,26:42
66,27:42
66,28:42
66,29:22
66,30:27
66,31:8
66,32:27
66,33:8
66,34:42
66,35:22
66,36:14
66,37:42
66,38:42
66,39:42
66,40:42
66,42:42
66,44:14
66,45:45
66,46:45
66,47:24
66,48:14
66,49:45
66,50:24
66,51:14
66,52:5
66,53:14
66,55:24
66,56:22
66,57:37
66,58:14
66,59:5
66,60:45
66,61:5
66,62:5
66,63:42
66,65:24
66,67:24
66,68:22
66,69:14
66,70:14
67,6:3
67,13:13
67,16:3
67,18:6
67,19:6
67,21:13
67,22:6
67,25:3
67,26:18
67,27:18
67,28:18
67,30:3
67,32:3
67,34:18
67,37:18
67,38:18
67,39:18
67,40:18
67,42:18
67,45:21
67,46:21
67,49:21
67,57:13
67,60:21
67,63:18
68,6:5
68,13:15
68,16:5
68,18:8
68,19:8
68,21:15
68,22:8
68,25:5
68,26:20
68,27:20
68,28:20
68,30:5
68,32:5
68,34:20
68,37:20
68,38:20
68,39:20
68,40:20
68,42:20
68,45:23
68,46:23
68,47:2
68,49:23
68,50:2
68,55:2
68,57:15
68,60:23
68,63:20
68,65:2
68,67:2
69,1:5
69,2:5
69,3:5
69,4:5
69,5:5
69,6:13
69,13:23
69,14:6
69,16:13
69,18:16
69,19:16
69,20:6
69,21:23
69,22:16
69,24:5
69,25:13
69,26:28
69,27:28
69,28:28
69,29:8
69,30:13
69,32:13
69,34:28
69,35:8
69,37:28
69,38:28
69,39:28
69,40:28
69,42:28
69,45:31
69,46:31
69,47:10
69,49:31
69,50:10
69,55:10
69,56:8
69,57:23
69,60:31
69,63:28
69,65:10
69,67:10
69,68:8
70,1:5
70,2:5
70,3:5
70,4:5
70,5:5
70,6:13
70,13:23
70,14:6
70,16:13
70,18:16
70,19:16
70,20:6
70,21:23
70,22:16
70,24:5
70,25:13
70,26:28
70,27:28
70,28:28
70,29:8
70,30:13
70,32:13
70,34:28
70,35:8
70,37:28
70,38:28
70,39:28
70,40:28
70,42:28
70,45:31
70,46:31
70,47:10
70,49:31
70,50:10
70,55:10
70,56:8
70,57:23
70,60:31
70,63:28
70,65:10
70,67:10
70,68:8

<end>

<optimal SALBP-1 value>
18


<rand seed>
467321153

